p cnf 13 26
-13 -11 4 0
13 8 -7 0
-13 -6 -3 0
-13 -5 -1 0
-12 9 1 0
12 -8 -6 0
12 8 6 0
12 -8 4 0
12 8 -2 0
12 -7 -6 0
11 9 -3 0
-11 5 3 0
-11 5 -1 0
-10 9 -8 0
-10 8 1 0
10 8 -1 0
10 -6 -5 0
10 -4 -2 0
9 8 -4 0
9 -8 3 0
-9 -7 5 0
-9 6 1 0
9 4 -1 0
-7 2 -1 0
6 3 1 0
-6 2 -1 0
